
Log started (V11.0.0) Sun Apr 20 20:24:31 2008

Tried aggregator 1 time.
Reduced MIP has 250 rows, 10001 columns, and 20050 nonzeros.
Presolve time =    0.08 sec.
Clique table members: 200.
MIP emphasis: balance optimality and feasibility.
MIP search method: dynamic search.
Parallel mode: none, using 1 thread.
Root relaxation solution time =    0.41 sec.

        Nodes                                         Cuts/
   Node  Left     Objective  IInf  Best Integer     Best Node    ItCnt     Gap

*     0+    0                        30748.0000      406.5386      754   98.68%
*     0+    0                          419.0000      406.5386      754    2.97%
      0     0      407.0000    88      419.0000      Fract: 4      759    2.86%
      0     0      407.0000    92      419.0000     Covers: 1      770    2.86%
      0     0      407.0000    93      419.0000     Covers: 1      784    2.86%
      0     2      407.0000    93      419.0000      407.0000      784    2.86%
    100    88      409.9188    90      419.0000      407.0000     4762    2.86%
*   200+  150                          418.0000      407.0000    16141    2.63%
    200   152      409.0000    68      418.0000      407.0000    16141    2.63%
    300   227      410.0000    83      418.0000      407.0000    23006    2.63%
    400   288      411.2515    88      418.0000      407.0000    29599    2.63%
    500   358      412.0000    69      418.0000      407.0000    35817    2.63%
*   508+  242                          417.0000      408.3573    38838    2.07%
*   508+  161                          412.0000      408.3573    38838    0.88%
    600   178      411.0000    68      412.0000      408.4053    41320    0.87%
    700   186      411.0000    76      412.0000      408.4053    50326    0.87%
    800   265      409.0000   105      412.0000      409.0000    54595    0.73%
    900   347      410.0000   108      412.0000      409.0000    61673    0.73%
   1000   436      410.0000    69      412.0000      409.0000    70076    0.73%
Elapsed time =  72.03 sec. (tree size =  3.10 MB, solutions = 5)
   1100   522    infeasible            412.0000      409.0000    78670    0.73%
   1200   546    infeasible            412.0000      409.0000   114251    0.73%
   1300   560    infeasible            412.0000      409.0000   155187    0.73%
   1400   648      411.0000    72      412.0000      409.0000   163451    0.73%
   1500   732      410.0428   158      412.0000      409.0000   178891    0.73%
   1600   825      411.0000    60      412.0000      409.0000   183174    0.73%
   1700   909      410.0000    96      412.0000      409.0000   190415    0.73%
   1800  1006      411.0000    60      412.0000      409.0000   194350    0.73%
   1900  1089      410.0000   146      412.0000      409.0000   202457    0.73%
   2000  1188      411.0000    98      412.0000      409.0000   206324    0.73%
Elapsed time = 149.59 sec. (tree size =  9.37 MB, solutions = 5)
   2100  1280      411.0000    57      412.0000      409.0000   213265    0.73%
   2200  1371      410.0000   145      412.0000      409.0000   224788    0.73%
   2300  1466    infeasible            412.0000      409.0000   228393    0.73%
   2400  1559      411.0000    51      412.0000      409.0000   234927    0.73%
   2500  1650      411.0000    79      412.0000      409.0000   242676    0.73%
   2600  1739      411.0000    67      412.0000      409.0000   249879    0.73%
   2700  1821      411.0000    64      412.0000      409.0000   260253    0.73%
   2800  1917      411.0000   132      412.0000      409.0000   270457    0.73%
   2900  1999      411.0000    67      412.0000      409.0000   293200    0.73%
   3000  2092      411.0000   107      412.0000      409.0000   300407    0.73%
Elapsed time = 222.67 sec. (tree size = 17.51 MB, solutions = 5)
   3100  2192      411.0000    83      412.0000      409.0000   305429    0.73%
   3200  2282      411.0000    95      412.0000      409.0000   316475    0.73%
   3300  2374      411.0000    88      412.0000      409.0000   331061    0.73%
   3400  2465      411.0000    67      412.0000      409.0000   338276    0.73%
   3500  2552      411.0000   108      412.0000      409.0000   348204    0.73%
   3600  2645      411.0000   101      412.0000      409.0000   359180    0.73%
   3700  2743      411.0000   119      412.0000      409.0000   369968    0.73%
   3800  2831      411.0000   134      412.0000      409.0000   380613    0.73%
   3900  2924      411.0000   101      412.0000      409.0000   388361    0.73%
   4000  3013      411.0000    89      412.0000      409.0000   400781    0.73%
Elapsed time = 294.56 sec. (tree size = 26.49 MB, solutions = 5)
*  4008+  545                          411.0000      409.0000   401066    0.49%
   4100   619      410.0000    83      411.0000      409.0000   425240    0.49%
   4200   713      410.0000    90      411.0000      409.0000   434676    0.49%
   4300   794      409.0000   210      411.0000      409.0000   464014    0.49%
   4400   878      410.0000   149      411.0000      409.0000   487194    0.49%
   4500   968      410.0000   116      411.0000      409.0000   501937    0.49%
   4600  1056      410.0000   125      411.0000      409.0000   513381    0.49%
   4700  1141    infeasible            411.0000      409.0000   537818    0.49%
   4800  1227      410.0000    94      411.0000      409.0000   560879    0.49%
   4900  1314      410.0000   132      411.0000      409.0000   579885    0.49%
   5000  1399      410.0000    91      411.0000      409.0000   592944    0.49%
Elapsed time = 423.55 sec. (tree size = 13.45 MB, solutions = 6)
   5100  1490      410.0000    71      411.0000      409.0000   605225    0.49%
   5200  1577      410.0000    76      411.0000      409.0000   632927    0.49%
   5300  1667      410.0000   102      411.0000      409.0000   665177    0.49%
   5400  1754      410.0000   153      411.0000      409.0000   689368    0.49%
   5500  1840      410.0000   104      411.0000      409.0000   719384    0.49%
   5600  1931      410.0000   134      411.0000      409.0000   735488    0.49%
   5700  2015      410.0000   106      411.0000      409.0000   761866    0.49%
   5800  2104      410.0000   120      411.0000      409.0000   783963    0.49%
   5900  2193    infeasible            411.0000      409.0000   808927    0.49%
   6000  2283      410.0000   111      411.0000      409.0000   826365    0.49%
Elapsed time = 566.72 sec. (tree size = 23.73 MB, solutions = 6)
   6100  2360      410.0000   213      411.0000      409.0000   855905    0.49%
   6200  2452    infeasible            411.0000      409.0000   876637    0.49%
   6300  2543      410.0000   150      411.0000      409.0000   890353    0.49%
   6400  2636      410.0000   138      411.0000      409.0000   902721    0.49%
   6500  2727    infeasible            411.0000      409.0000   915160    0.49%
   6600  2811      410.0000    79      411.0000      409.0000   944164    0.49%
   6700  2902      410.0000   133      411.0000      409.0000   971777    0.49%
   6800  2984      410.0000   113      411.0000      409.0000   989092    0.49%
   6900  3063      410.0000   109      411.0000      409.0000  1023463    0.49%
   7000  3159      410.0000   103      411.0000      409.0000  1038363    0.49%
Elapsed time = 730.83 sec. (tree size = 34.67 MB, solutions = 6)
   7100  3252      410.0000   105      411.0000      409.0000  1057318    0.49%
   7200  3342      410.0000    58      411.0000      409.0000  1074139    0.49%
   7300  3412      410.0000   194      411.0000      409.0000  1101595    0.49%
   7400  3506      410.0000   158      411.0000      409.0000  1112811    0.49%
   7500  3601      410.0000   181      411.0000      409.0000  1125812    0.49%
   7600  3696      410.0000   154      411.0000      409.0000  1143087    0.49%
   7700  3781      410.0000   147      411.0000      409.0000  1167137    0.49%
   7800  3862      409.4867   255      411.0000      409.0000  1193890    0.49%
   7900  3951      410.0000   152      411.0000      409.0000  1229500    0.49%
   8000  4031      410.0000   139      411.0000      409.0000  1269802    0.49%
Elapsed time = 920.50 sec. (tree size = 46.27 MB, solutions = 6)
   8100  4076      410.0000   112      411.0000      409.0000  1317316    0.49%
   8200  4167      410.0000   164      411.0000      409.0000  1340114    0.49%
   8300  4243      410.0000   143      411.0000      409.0000  1363600    0.49%
   8400  4341      410.0000   174      411.0000      409.0000  1378616    0.49%
   8500  4413      410.0000    82      411.0000      409.0000  1422249    0.49%
   8600  4469      410.0000   145      411.0000      409.0000  1506401    0.49%
   8700  4557      410.0000   106      411.0000      409.0000  1536981    0.49%
   8800  4619      410.0000    63      411.0000      409.0000  1600855    0.49%
   8900  4719      410.0000   119      411.0000      409.0000  1606956    0.49%
   9000  4783      410.0000   111      411.0000      409.0361  1685607    0.48%
Elapsed time = 1244.33 sec. (tree size = 56.96 MB, solutions = 6)
   9100  4870      410.0000   101      411.0000      409.0669  1723827    0.47%
   9200  4962      410.0000   139      411.0000      409.0861  1747623    0.47%
   9300  5040      410.0000   115      411.0000      409.1407  1793736    0.45%
   9400  5134      410.0000   159      411.0000      409.1407  1813784    0.45%
   9500  5224      410.0000   108      411.0000      409.1499  1834344    0.45%
   9600  5319      410.0000   161      411.0000      409.1549  1848912    0.45%
   9700  5414      410.0000   132      411.0000      409.1702  1868294    0.45%
   9800  5499      410.0000   208      411.0000      409.2167  1915384    0.43%
   9900  5592      410.0000   110      411.0000      409.2167  1927374    0.43%
  10000  5687      410.0000   153      411.0000      409.2176  1946371    0.43%
Elapsed time = 1491.42 sec. (tree size = 69.87 MB, solutions = 6)
  10100  5773      410.0000   178      411.0000      409.2206  1988209    0.43%
  10200  5855      410.0000   102      411.0000      409.2458  2028003    0.43%
  10300  5948      410.0000   119      411.0000      409.2590  2051977    0.42%
  10400  6034      410.0000   243      411.0000      409.2772  2102376    0.42%
  10500  6129      410.0000   146      411.0000      409.2944  2124752    0.41%
  10600  6216      410.0000   100      411.0000      409.2998  2155242    0.41%
  10700  6311      410.0000    93      411.0000      409.3014  2173110    0.41%
  10800  6402      410.0000    91      411.0000      409.3062  2199221    0.41%
  10900  6494      410.0000   134      411.0000      409.3152  2220027    0.41%
  11000  6585      410.0000   143      411.0000      409.3530  2247472    0.40%
Elapsed time = 1754.69 sec. (tree size = 82.98 MB, solutions = 6)
  11100  6680      410.0000   192      411.0000      409.3572  2266454    0.40%
  11200  6751      410.0000   218      411.0000      409.3901  2337802    0.39%
  11300  6827      410.0000   162      411.0000      409.4358  2423234    0.38%
  11400  6886      410.0000   156      411.0000      409.4968  2490452    0.37%
  11500  6942    infeasible            411.0000      409.5192  2571669    0.36%
  11600  7008      409.7925   298      411.0000      409.6504  2699617    0.33%
  11700  7073    infeasible            411.0000      410.0000  2773074    0.24%
  11800  7149      410.0000   113      411.0000      410.0000  2858278    0.24%
  11900  7237      410.0000   102      411.0000      410.0000  2895434    0.24%
  12000  7323      410.0000    39      411.0000      410.0000  2951297    0.24%
Elapsed time = 2347.16 sec. (tree size = 94.43 MB, solutions = 6)
  12100  7417      410.0000   150      411.0000      410.0000  2986913    0.24%
  12200  7511      410.0000   129      411.0000      410.0000  3005746    0.24%
  12300  7601      410.0000   106      411.0000      410.0000  3031137    0.24%
  12400  7697      410.0000    62      411.0000      410.0000  3044701    0.24%
  12500  7791      410.0000   111      411.0000      410.0000  3072597    0.24%
  12600  7879      410.0000    53      411.0000      410.0000  3107647    0.24%
  12700  7969      410.0000   131      411.0000      410.0000  3155156    0.24%
  12800  8059      410.0000    94      411.0000      410.0000  3194560    0.24%
  12900  8149      410.0000    84      411.0000      410.0000  3225783    0.24%
  13000  8249      410.0000    86      411.0000      410.0000  3238836    0.24%
Elapsed time = 2639.00 sec. (tree size = 110.02 MB, solutions = 6)
  13100  8343      410.0000    79      411.0000      410.0000  3257208    0.24%
  13200  8431      410.0000   133      411.0000      410.0000  3291660    0.24%
  13300  8527      410.0000   142      411.0000      410.0000  3315719    0.24%
  13400  8617      410.0000   128      411.0000      410.0000  3344851    0.24%
  13500  8709      410.0000   150      411.0000      410.0000  3395456    0.24%
  13600  8801      410.0000   128      411.0000      410.0000  3429170    0.24%
  13700  8895      410.0000   149      411.0000      410.0000  3459618    0.24%
  13800  8981      410.0000   193      411.0000      410.0000  3509904    0.24%
  13900  9071      410.0000   154      411.0000      410.0000  3555836    0.24%
  14000  9155      410.0000   125      411.0000      410.0000  3629396    0.24%
Elapsed time = 3055.33 sec. (tree size = 125.70 MB, solutions = 6)
  14100  9247      410.0000   150      411.0000      410.0000  3671930    0.24%
  14200  9337      410.0000   160      411.0000      410.0000  3727311    0.24%
  14300  9421      410.0000   166      411.0000      410.0000  3779532    0.24%
  14400  9513    infeasible            411.0000      410.0000  3838555    0.24%
  14500  9589      410.0000   182      411.0000      410.0000  3942918    0.24%
  14600  9683      410.0000   121      411.0000      410.0000  3976118    0.24%
  14700  9769    infeasible            411.0000      410.0000  4032735    0.24%
  14800  9859      410.0000   164      411.0000      410.0000  4083543    0.24%
  14900  9955      410.0000   197      411.0000      410.0000  4129675    0.24%
  15000 10035      410.0000   132      411.0000      410.0000  4240568    0.24%
Elapsed time = 3742.83 sec. (tree size = 141.90 MB, solutions = 6)
Nodefile size = 14.88 MB (11.66 MB after compression)
  15100 10125      410.0000   180      411.0000      410.0000  4314013    0.24%
  15200 10214      410.0000   140      411.0000      410.0000  4380692    0.24%
  15300 10286      410.0000   174      411.0000      410.0000  4453956    0.24%
  15400 10382      410.0000   142      411.0000      410.0000  4494837    0.24%
  15500 10472      410.0000   177      411.0000      410.0000  4555668    0.24%
  15600 10556      410.0000   192      411.0000      410.0000  4675307    0.24%
  15700 10638      410.0000   126      411.0000      410.0000  4778451    0.24%
  15800 10722      410.0000    99      411.0000      410.0000  4833341    0.24%
  15900 10814      410.0000   158      411.0000      410.0000  4882418    0.24%
  16000 10902      410.0000   179      411.0000      410.0000  4980697    0.24%
Elapsed time = 4626.66 sec. (tree size = 158.84 MB, solutions = 6)
Nodefile size = 31.75 MB (25.62 MB after compression)
  16100 10988      410.0000   178      411.0000      410.0000  5102374    0.24%
  16200 11064      410.0000   214      411.0000      410.0000  5273467    0.24%
  16300 11158      410.0000   191      411.0000      410.0000  5346117    0.24%
  16400 11246      410.0000   164      411.0000      410.0000  5407484    0.24%
  16500 11330      410.0000   228      411.0000      410.0000  5518556    0.24%
  16600 11422      410.0000   181      411.0000      410.0000  5581178    0.24%
  16700 11516      410.0000   160      411.0000      410.0000  5661944    0.24%
  16800 11602      410.0000   226      411.0000      410.0000  5801194    0.24%
  16900 11680    infeasible            411.0000      410.0000  5936002    0.24%
  17000 11778      410.0000   149      411.0000      410.0000  5982325    0.24%
Elapsed time = 5898.86 sec. (tree size = 177.03 MB, solutions = 6)
Nodefile size = 49.60 MB (41.08 MB after compression)
  17100 11856      410.0000   165      411.0000      410.0000  6098592    0.24%
  17200 11940      410.0000   208      411.0000      410.0000  6209003    0.24%
  17300 12022      410.0000   151      411.0000      410.0000  6341544    0.24%
  17400 12100      410.0000   214      411.0000      410.0000  6431751    0.24%
  17500 12186      410.0000   179      411.0000      410.0000  6525551    0.24%
  17600 12266      410.0000   179      411.0000      410.0000  6655784    0.24%
  17700 12360      410.0000   206      411.0000      410.0000  6724231    0.24%
  17800 12444      410.0000   155      411.0000      410.0000  6832586    0.24%
  17900 12530      410.0000   209      411.0000      410.0000  6904542    0.24%

Cover cuts applied:  1199
Mixed integer rounding cuts applied:  38
Gomory fractional cuts applied:  13

Solution pool: 6 solutions saved.

MIP - Time limit exceeded, integer feasible:  Objective = 4.1100000000e+002
Current MIP best bound = 4.1000000000e+002 (gap = 1, 0.24%)
Solution time = 7200.01 sec.  Iterations = 7031132  Nodes = 17980 (12589)


Incumbent solution
Variable Name           Solution Value
Cmax                        411.000000
X_1_8                         1.000000
X_2_45                        1.000000
X_3_33                        1.000000
X_4_3                         1.000000
X_5_13                        1.000000
X_6_18                        1.000000
X_7_21                        1.000000
X_8_16                        1.000000
X_9_43                        1.000000
X_10_46                       1.000000
X_11_31                       1.000000
X_12_17                       1.000000
X_13_4                        1.000000
X_14_1                        1.000000
X_15_42                       1.000000
X_16_23                       1.000000
X_17_44                       1.000000
X_18_12                       1.000000
X_19_49                       1.000000
X_20_25                       1.000000
X_21_30                       1.000000
X_22_41                       1.000000
X_23_42                       1.000000
X_24_22                       1.000000
X_25_50                       1.000000
X_26_38                       1.000000
X_27_20                       1.000000
X_28_6                        1.000000
X_29_46                       1.000000
X_30_28                       1.000000
X_31_32                       1.000000
X_32_16                       1.000000
X_33_5                        1.000000
X_34_18                       1.000000
X_35_36                       1.000000
X_36_41                       1.000000
X_37_2                        1.000000
X_38_29                       1.000000
X_39_23                       1.000000
X_40_14                       1.000000
X_41_3                        1.000000
X_42_39                       1.000000
X_43_42                       1.000000
X_44_27                       1.000000
X_45_37                       1.000000
X_46_14                       1.000000
X_47_36                       1.000000
X_48_25                       1.000000
X_49_36                       1.000000
X_50_15                       1.000000
X_51_47                       1.000000
X_52_2                        1.000000
X_53_19                       1.000000
X_54_46                       1.000000
X_55_20                       1.000000
X_56_26                       1.000000
X_57_32                       1.000000
X_58_16                       1.000000
X_59_39                       1.000000
X_60_29                       1.000000
X_61_14                       1.000000
X_62_37                       1.000000
X_63_30                       1.000000
X_64_38                       1.000000
X_65_48                       1.000000
X_66_50                       1.000000
X_67_27                       1.000000
X_68_5                        1.000000
X_69_35                       1.000000
X_70_34                       1.000000
X_71_31                       1.000000
X_72_39                       1.000000
X_73_22                       1.000000
X_74_2                        1.000000
X_75_9                        1.000000
X_76_12                       1.000000
X_77_4                        1.000000
X_78_40                       1.000000
X_79_11                       1.000000
X_80_18                       1.000000
X_81_10                       1.000000
X_82_24                       1.000000
X_83_4                        1.000000
X_84_29                       1.000000
X_85_24                       1.000000
X_86_46                       1.000000
X_87_28                       1.000000
X_88_15                       1.000000
X_89_40                       1.000000
X_90_34                       1.000000
X_91_24                       1.000000
X_92_33                       1.000000
X_93_34                       1.000000
X_94_30                       1.000000
X_95_45                       1.000000
X_96_7                        1.000000
X_97_38                       1.000000
X_98_35                       1.000000
X_99_5                        1.000000
X_100_7                       1.000000
X_101_47                      1.000000
X_102_40                      1.000000
X_103_3                       1.000000
X_104_15                      1.000000
X_105_26                      1.000000
X_106_49                      1.000000
X_107_32                      1.000000
X_108_23                      1.000000
X_109_11                      1.000000
X_110_8                       1.000000
X_111_33                      1.000000
X_112_21                      1.000000
X_113_31                      1.000000
X_114_10                      1.000000
X_115_19                      1.000000
X_116_9                       1.000000
X_117_7                       1.000000
X_118_36                      1.000000
X_119_37                      1.000000
X_120_6                       1.000000
X_121_19                      1.000000
X_122_47                      1.000000
X_123_44                      1.000000
X_124_28                      1.000000
X_125_7                       1.000000
X_126_41                      1.000000
X_127_21                      1.000000
X_128_4                       1.000000
X_129_15                      1.000000
X_130_8                       1.000000
X_131_26                      1.000000
X_132_48                      1.000000
X_133_12                      1.000000
X_134_1                       1.000000
X_135_25                      1.000000
X_136_18                      1.000000
X_137_27                      1.000000
X_138_10                      1.000000
X_139_3                       1.000000
X_140_21                      1.000000
X_141_26                      1.000000
X_142_11                      1.000000
X_143_35                      1.000000
X_144_1                       1.000000
X_145_14                      1.000000
X_146_34                      1.000000
X_147_20                      1.000000
X_148_29                      1.000000
X_149_43                      1.000000
X_150_44                      1.000000
X_151_35                      1.000000
X_152_48                      1.000000
X_153_19                      1.000000
X_154_1                       1.000000
X_155_33                      1.000000
X_156_49                      1.000000
X_157_22                      1.000000
X_158_23                      1.000000
X_159_5                       1.000000
X_160_45                      1.000000
X_161_8                       1.000000
X_162_2                       1.000000
X_163_27                      1.000000
X_164_17                      1.000000
X_165_9                       1.000000
X_166_25                      1.000000
X_167_48                      1.000000
X_168_17                      1.000000
X_169_6                       1.000000
X_170_45                      1.000000
X_171_43                      1.000000
X_172_20                      1.000000
X_173_17                      1.000000
X_174_28                      1.000000
X_175_47                      1.000000
X_176_43                      1.000000
X_177_13                      1.000000
X_178_13                      1.000000
X_179_49                      1.000000
X_180_39                      1.000000
X_181_11                      1.000000
X_182_6                       1.000000
X_183_37                      1.000000
X_184_31                      1.000000
X_185_38                      1.000000
X_186_44                      1.000000
X_187_50                      1.000000
X_188_12                      1.000000
X_189_41                      1.000000
X_190_22                      1.000000
X_191_32                      1.000000
X_192_9                       1.000000
X_193_50                      1.000000
X_194_13                      1.000000
X_195_10                      1.000000
X_196_40                      1.000000
X_197_24                      1.000000
X_198_42                      1.000000
X_199_16                      1.000000
X_200_30                      1.000000
All other variables in the range 1-10001 are 0.
